c preprocessed version of 1cc8_graph, 70 vertices, 813 edges
p td 70 813
68 69
67 69
67 68
66 69
66 68
66 67
65 69
65 68
65 67
65 66
64 67
64 66
64 65
63 67
63 66
63 65
63 64
62 66
62 65
62 64
62 63
61 66
61 64
61 63
61 62
60 62
60 61
59 63
59 61
59 60
58 61
58 60
58 59
57 66
57 64
57 63
57 62
57 61
57 60
57 59
57 58
56 66
56 65
56 64
56 63
56 62
56 61
56 60
56 59
56 58
56 57
55 61
55 59
55 58
55 57
55 56
54 66
54 63
54 58
54 57
54 56
54 55
53 68
53 67
53 66
53 65
53 64
53 63
53 62
53 58
53 57
53 56
53 55
53 54
52 68
52 67
52 66
52 63
52 61
52 59
52 57
52 56
52 55
52 54
52 53
51 58
51 56
51 55
51 54
51 53
51 52
50 68
50 66
50 63
50 58
50 57
50 55
50 54
50 53
50 52
50 51
49 69
49 68
49 67
49 66
49 65
49 63
49 57
49 56
49 54
49 53
49 52
49 51
49 50
48 68
48 55
48 54
48 53
48 52
48 51
48 50
48 49
47 66
47 56
47 55
47 54
47 52
47 51
47 50
47 49
47 48
46 52
46 51
46 48
46 47
45 68
45 66
45 56
45 55
45 53
45 52
45 51
45 50
45 49
45 48
45 47
45 46
44 69
44 68
44 52
44 47
44 46
44 45
43 68
43 66
43 63
43 61
43 56
43 55
43 53
43 52
43 51
43 49
43 48
43 47
43 46
43 45
43 44
42 69
42 68
42 67
42 56
42 52
42 45
42 44
42 43
41 66
41 64
41 63
41 61
41 59
41 57
41 56
41 55
41 53
41 52
41 47
41 45
41 44
41 43
41 42
40 69
40 67
40 66
40 65
40 64
40 63
40 56
40 44
40 43
40 42
40 41
39 65
39 64
39 62
39 61
39 41
39 40
38 69
38 42
38 41
38 40
38 39
37 42
37 40
37 39
37 38
36 61
36 41
36 40
36 39
36 38
36 37
35 44
35 42
35 41
35 40
35 39
35 38
35 37
35 36
34 66
34 63
34 61
34 59
34 56
34 52
34 45
34 43
34 42
34 41
34 40
34 39
34 38
34 37
34 36
34 35
33 69
33 44
33 43
33 42
33 41
33 40
33 38
33 37
33 35
33 34
32 66
32 63
32 61
32 56
32 55
32 52
32 47
32 45
32 44
32 43
32 42
32 41
32 40
32 35
32 34
32 33
31 69
31 52
31 46
31 45
31 44
31 43
31 42
31 41
31 40
31 35
31 34
31 33
31 32
30 52
30 47
30 46
30 45
30 44
30 43
30 42
30 33
30 32
30 31
29 56
29 55
29 52
29 51
29 47
29 46
29 45
29 44
29 43
29 42
29 41
29 34
29 33
29 32
29 31
29 30
28 55
28 52
28 51
28 48
28 47
28 46
28 45
28 43
28 32
28 30
28 29
27 47
27 46
27 30
27 29
27 28
26 47
26 45
26 43
26 32
26 30
26 29
26 28
26 27
25 58
25 56
25 55
25 54
25 52
25 51
25 48
25 47
25 46
25 45
25 43
25 41
25 32
25 29
25 28
25 27
25 26
24 59
24 58
24 55
24 51
24 47
24 29
24 28
24 26
24 25
23 56
23 55
23 43
23 34
23 32
23 29
23 27
23 26
23 25
23 24
22 66
22 63
22 61
22 59
22 56
22 55
22 53
22 52
22 51
22 47
22 45
22 44
22 43
22 42
22 41
22 34
22 33
22 32
22 31
22 30
22 29
22 28
22 26
22 25
22 24
22 23
21 66
21 63
21 61
21 60
21 59
21 58
21 56
21 55
21 54
21 53
21 52
21 51
21 47
21 45
21 43
21 41
21 34
21 32
21 29
21 28
21 25
21 24
21 23
21 22
20 61
20 59
20 58
20 56
20 55
20 32
20 25
20 24
20 23
20 22
20 21
19 56
19 52
19 43
19 41
19 36
19 34
19 33
19 32
19 31
19 29
19 26
19 24
19 23
19 22
19 21
19 20
18 66
18 64
18 63
18 62
18 61
18 60
18 59
18 58
18 57
18 56
18 55
18 53
18 52
18 47
18 45
18 43
18 42
18 41
18 40
18 39
18 36
18 35
18 34
18 33
18 32
18 29
18 25
18 22
18 21
18 20
18 19
17 63
17 61
17 60
17 59
17 58
17 56
17 55
17 41
17 34
17 24
17 21
17 20
17 19
17 18
16 61
16 59
16 36
16 34
16 32
16 24
16 23
16 21
16 20
16 19
16 18
16 17
15 63
15 61
15 59
15 56
15 43
15 42
15 41
15 40
15 39
15 38
15 37
15 36
15 35
15 34
15 33
15 32
15 29
15 23
15 22
15 20
15 19
15 18
15 17
15 16
14 61
14 59
14 36
14 20
14 17
14 16
14 15
13 37
13 36
13 35
13 34
13 20
13 19
13 16
13 15
13 14
12 64
12 62
12 61
12 39
12 36
12 18
12 17
12 15
12 14
12 13
11 64
11 63
11 61
11 59
11 56
11 43
11 41
11 40
11 39
11 38
11 36
11 35
11 34
11 33
11 32
11 22
11 19
11 18
11 17
11 15
11 13
11 12
10 65
10 64
10 63
10 62
10 61
10 60
10 56
10 41
10 39
10 36
10 34
10 18
10 15
10 12
10 11
9 66
9 65
9 64
9 63
9 62
9 61
9 60
9 59
9 57
9 56
9 55
9 53
9 52
9 49
9 43
9 42
9 41
9 40
9 39
9 36
9 34
9 32
9 29
9 22
9 21
9 20
9 19
9 18
9 17
9 15
9 12
9 11
9 10
8 69
8 67
8 66
8 65
8 64
8 63
8 62
8 56
8 53
8 42
8 41
8 40
8 39
8 38
8 35
8 18
8 11
8 10
8 9
7 69
7 68
7 67
7 66
7 65
7 64
7 63
7 62
7 61
7 59
7 57
7 56
7 55
7 53
7 52
7 49
7 47
7 45
7 43
7 42
7 41
7 40
7 39
7 38
7 34
7 33
7 32
7 29
7 22
7 21
7 18
7 15
7 11
7 10
7 9
7 8
6 69
6 68
6 67
6 66
6 65
6 64
6 63
6 56
6 53
6 52
6 49
6 44
6 43
6 42
6 41
6 40
6 39
6 38
6 35
6 34
6 33
6 31
6 18
6 9
6 8
6 7
5 69
5 68
5 67
5 66
5 65
5 63
5 57
5 56
5 55
5 53
5 52
5 51
5 50
5 49
5 48
5 47
5 46
5 45
5 44
5 43
5 42
5 41
5 40
5 34
5 32
5 31
5 29
5 25
5 22
5 21
5 18
5 9
5 8
5 7
5 6
4 69
4 68
4 67
4 52
4 49
4 45
4 44
4 43
4 42
4 41
4 40
4 35
4 33
4 31
4 30
4 7
4 6
4 5
3 69
3 68
3 67
3 66
3 53
3 52
3 49
3 48
3 47
3 46
3 45
3 44
3 43
3 42
3 31
3 30
3 29
3 7
3 5
3 4
2 52
2 46
2 45
2 44
2 43
2 42
2 31
2 30
2 29
2 28
2 27
2 5
2 4
2 3
1 68
1 49
1 48
1 46
1 45
1 44
1 30
1 5
1 4
1 3
1 2
0 46
0 44
0 30
0 28
0 27
0 3
0 2
0 1
